; DUP1 DUP1 CALLDATALOAD PUSH 0x00 NOT AND => DUP1 DUP2 CALLDATALOAD
(set-option :produce-proofs true)
; 
(set-info :status unknown)
(declare-fun storage_t ((_ BitVec 256) (_ BitVec 256) Int (_ BitVec 256)) (_ BitVec 256))
(declare-fun storage_s ((_ BitVec 256) (_ BitVec 256) Int (_ BitVec 256)) (_ BitVec 256))
(declare-fun exc_halt_t (Int) Bool)
(declare-fun exc_halt_s (Int) Bool)
(declare-fun stack_t ((_ BitVec 256) (_ BitVec 256) Int (_ BitVec 6)) (_ BitVec 256))
(declare-fun stack_s ((_ BitVec 256) (_ BitVec 256) Int (_ BitVec 6)) (_ BitVec 256))
(declare-fun sc_t (Int) (_ BitVec 6))
(declare-fun sc_s (Int) (_ BitVec 6))
(declare-fun used_gas_t ((_ BitVec 256) (_ BitVec 256) Int) Int)
(declare-fun used_gas_s ((_ BitVec 256) (_ BitVec 256) Int) Int)
(declare-fun f_CALLDATALOAD ((_ BitVec 256) (_ BitVec 256) (_ BitVec 256)) (_ BitVec 256))
(assert
 (exists ((x_0 (_ BitVec 256)) (x_CALLDATALOAD_0 (_ BitVec 256)) )(let (($x6742 (forall ((w (_ BitVec 256)) )(let ((?x2049 (storage_t x_0 x_CALLDATALOAD_0 3 w)))
 (let ((?x2169 (storage_s x_0 x_CALLDATALOAD_0 6 w)))
 (= ?x2169 ?x2049))))
 ))
 (let (($x3614 (exc_halt_t 3)))
 (let (($x772 (exc_halt_s 6)))
 (let (($x4578 (= $x772 $x3614)))
 (let (($x9092 (forall ((n (_ BitVec 6)) )(let ((?x11336 (stack_t x_0 x_CALLDATALOAD_0 3 n)))
 (let ((?x1277 (stack_s x_0 x_CALLDATALOAD_0 6 n)))
 (let (($x1585 (= ?x1277 ?x11336)))
 (let ((?x11304 (sc_t 3)))
 (let (($x484 (bvsle ?x11304 n)))
 (or $x484 $x1585)))))))
 ))
 (let ((?x11304 (sc_t 3)))
 (let ((?x926 (sc_s 6)))
 (let (($x9055 (= ?x926 ?x11304)))
 (let ((?x3023 (used_gas_t x_0 x_CALLDATALOAD_0 0)))
 (let ((?x8863 (used_gas_s x_0 x_CALLDATALOAD_0 0)))
 (let (($x8161 (= ?x8863 ?x3023)))
 (let (($x3027 (forall ((w (_ BitVec 256)) )(let ((?x10102 (storage_t x_0 x_CALLDATALOAD_0 0 w)))
 (let ((?x1051 (storage_s x_0 x_CALLDATALOAD_0 0 w)))
 (= ?x1051 ?x10102))))
 ))
 (let (($x56 (exc_halt_t 0)))
 (let (($x57 (exc_halt_s 0)))
 (let (($x58 (= $x57 $x56)))
 (let (($x1684 (forall ((n (_ BitVec 6)) )(let ((?x63 (sc_t 0)))
 (let (($x7673 (bvsle ?x63 n)))
 (let ((?x6565 (stack_t x_0 x_CALLDATALOAD_0 0 n)))
 (let ((?x492 (stack_s x_0 x_CALLDATALOAD_0 0 n)))
 (let (($x1318 (= ?x492 ?x6565)))
 (or $x1318 $x7673)))))))
 ))
 (let ((?x63 (sc_t 0)))
 (let ((?x72 (sc_s 0)))
 (let (($x73 (= ?x72 ?x63)))
 (let (($x6857 (= $x3614 (or (exc_halt_t 2) (not (bvsle (_ bv0 6) (bvadd (_ bv63 6) (sc_t 2))))))))
 (let (($x7866 (forall ((w (_ BitVec 256)) )(let ((?x10736 (storage_t x_0 x_CALLDATALOAD_0 2 w)))
 (let ((?x2049 (storage_t x_0 x_CALLDATALOAD_0 3 w)))
 (= ?x2049 ?x10736))))
 ))
 (let (($x5418 (forall ((n (_ BitVec 6)) )(let ((?x6158 (sc_t 2)))
 (let ((?x10639 (bvadd (_ bv63 6) ?x6158)))
 (let (($x3163 (bvsle ?x10639 n)))
 (or $x3163 (= (stack_t x_0 x_CALLDATALOAD_0 3 n) (stack_t x_0 x_CALLDATALOAD_0 2 n)))))))
 ))
 (let ((?x6158 (sc_t 2)))
 (let (($x10269 (= ?x11304 ?x6158)))
 (let (($x1565 (= (used_gas_t x_0 x_CALLDATALOAD_0 3) (+ 3 (used_gas_t x_0 x_CALLDATALOAD_0 2)))))
 (let (($x9573 (= (stack_t x_0 x_CALLDATALOAD_0 3 (bvadd (_ bv63 6) ?x11304)) (f_CALLDATALOAD x_0 x_CALLDATALOAD_0 (stack_t x_0 x_CALLDATALOAD_0 2 (bvadd (_ bv63 6) ?x6158))))))
 (let (($x8377 (exc_halt_t 1)))
 (let (($x4195 (not (= ((_ extract 6 6) (bvadd (_ bv1 7) (concat (_ bv0 1) (sc_t 1)))) (_ bv0 1)))))
 (let (($x3470 (exc_halt_t 2)))
 (let (($x9922 (forall ((w (_ BitVec 256)) )(let ((?x7170 (storage_t x_0 x_CALLDATALOAD_0 1 w)))
 (let ((?x10736 (storage_t x_0 x_CALLDATALOAD_0 2 w)))
 (= ?x10736 ?x7170))))
 ))
 (let (($x10023 (forall ((n (_ BitVec 6)) )(or (= (stack_t x_0 x_CALLDATALOAD_0 2 n) (stack_t x_0 x_CALLDATALOAD_0 1 n)) (bvsle (bvadd (_ bv62 6) (sc_t 1)) n)))
 ))
 (let (($x2783 (= ?x6158 (bvadd (_ bv1 6) (sc_t 1)))))
 (let ((?x3585 (used_gas_t x_0 x_CALLDATALOAD_0 2)))
 (let ((?x7154 (sc_t 1)))
 (let ((?x6967 (bvadd (_ bv63 6) ?x7154)))
 (let ((?x9584 (stack_t x_0 x_CALLDATALOAD_0 1 ?x6967)))
 (let ((?x1350 (bvadd (_ bv62 6) ?x7154)))
 (let ((?x8124 (stack_t x_0 x_CALLDATALOAD_0 1 ?x1350)))
 (let (($x7311 (not (= ((_ extract 6 6) (bvadd (_ bv1 7) (concat (_ bv0 1) ?x63))) (_ bv0 1)))))
 (let (($x6527 (not (bvsle (_ bv0 6) (bvadd (_ bv63 6) ?x63)))))
 (let (($x4333 (forall ((w (_ BitVec 256)) )(let ((?x10102 (storage_t x_0 x_CALLDATALOAD_0 0 w)))
 (let ((?x7170 (storage_t x_0 x_CALLDATALOAD_0 1 w)))
 (= ?x7170 ?x10102))))
 ))
 (let (($x7192 (forall ((n (_ BitVec 6)) )(let ((?x63 (sc_t 0)))
 (let ((?x7761 (bvadd (_ bv63 6) ?x63)))
 (let (($x2453 (bvsle ?x7761 n)))
 (or $x2453 (= (stack_t x_0 x_CALLDATALOAD_0 1 n) (stack_t x_0 x_CALLDATALOAD_0 0 n)))))))
 ))
 (let (($x3228 (= ?x7154 (bvadd (_ bv1 6) ?x63))))
 (let ((?x7761 (bvadd (_ bv63 6) ?x63)))
 (let ((?x10299 (stack_t x_0 x_CALLDATALOAD_0 0 ?x7761)))
 (let (($x6791 (= $x772 (or (exc_halt_s 5) (not (bvsle (_ bv0 6) (bvadd (_ bv62 6) (sc_s 5))))))))
 (let (($x11437 (forall ((w (_ BitVec 256)) )(let ((?x6923 (storage_s x_0 x_CALLDATALOAD_0 5 w)))
 (let ((?x2169 (storage_s x_0 x_CALLDATALOAD_0 6 w)))
 (= ?x2169 ?x6923))))
 ))
 (let (($x2326 (forall ((n (_ BitVec 6)) )(or (bvsle (bvadd (_ bv62 6) (sc_s 5)) n) (= (stack_s x_0 x_CALLDATALOAD_0 6 n) (stack_s x_0 x_CALLDATALOAD_0 5 n))))
 ))
 (let ((?x4319 (sc_s 5)))
 (let ((?x5078 (bvadd (_ bv63 6) ?x4319)))
 (let (($x9602 (= ?x926 ?x5078)))
 (let (($x11038 (= (used_gas_s x_0 x_CALLDATALOAD_0 6) (+ 3 (used_gas_s x_0 x_CALLDATALOAD_0 5)))))
 (let ((?x8331 (bvor (bvnot (stack_s x_0 x_CALLDATALOAD_0 5 ?x5078)) (bvnot (stack_s x_0 x_CALLDATALOAD_0 5 (bvadd (_ bv62 6) ?x4319))))))
 (let (($x11317 (exc_halt_s 5)))
 (let (($x2650 (= $x11317 (or (exc_halt_s 4) (not (bvsle (_ bv0 6) (bvadd (_ bv63 6) (sc_s 4))))))))
 (let (($x2020 (forall ((w (_ BitVec 256)) )(let ((?x11519 (storage_s x_0 x_CALLDATALOAD_0 4 w)))
 (let ((?x6923 (storage_s x_0 x_CALLDATALOAD_0 5 w)))
 (= ?x6923 ?x11519))))
 ))
 (let (($x94 (forall ((n (_ BitVec 6)) )(let ((?x4305 (sc_s 4)))
 (let ((?x11664 (bvadd (_ bv63 6) ?x4305)))
 (let (($x1123 (bvsle ?x11664 n)))
 (or $x1123 (= (stack_s x_0 x_CALLDATALOAD_0 5 n) (stack_s x_0 x_CALLDATALOAD_0 4 n)))))))
 ))
 (let ((?x4305 (sc_s 4)))
 (let (($x9960 (= ?x4319 ?x4305)))
 (let ((?x11928 (used_gas_s x_0 x_CALLDATALOAD_0 5)))
 (let ((?x4858 (stack_s x_0 x_CALLDATALOAD_0 5 ?x5078)))
 (let (($x3783 (not (= ((_ extract 6 6) (bvadd (_ bv1 7) (concat (_ bv0 1) (sc_s 3)))) (_ bv0 1)))))
 (let (($x292 (exc_halt_s 3)))
 (let (($x7172 (exc_halt_s 4)))
 (let (($x8718 (forall ((w (_ BitVec 256)) )(let ((?x10917 (storage_s x_0 x_CALLDATALOAD_0 3 w)))
 (let ((?x11519 (storage_s x_0 x_CALLDATALOAD_0 4 w)))
 (= ?x11519 ?x10917))))
 ))
 (let (($x11357 (forall ((n (_ BitVec 6)) )(or (bvsle (sc_s 3) n) (= (stack_s x_0 x_CALLDATALOAD_0 4 n) (stack_s x_0 x_CALLDATALOAD_0 3 n))))
 ))
 (let (($x8397 (= ?x4305 (bvadd (_ bv1 6) (sc_s 3)))))
 (let ((?x8055 (used_gas_s x_0 x_CALLDATALOAD_0 4)))
 (let (($x3936 (= $x292 (or (exc_halt_s 2) (not (bvsle (_ bv0 6) (bvadd (_ bv63 6) (sc_s 2))))))))
 (let (($x10889 (forall ((w (_ BitVec 256)) )(let ((?x7497 (storage_s x_0 x_CALLDATALOAD_0 2 w)))
 (let ((?x10917 (storage_s x_0 x_CALLDATALOAD_0 3 w)))
 (= ?x10917 ?x7497))))
 ))
 (let (($x8685 (forall ((n (_ BitVec 6)) )(let ((?x218 (sc_s 2)))
 (let ((?x2158 (bvadd (_ bv63 6) ?x218)))
 (let (($x2580 (bvsle ?x2158 n)))
 (or $x2580 (= (stack_s x_0 x_CALLDATALOAD_0 3 n) (stack_s x_0 x_CALLDATALOAD_0 2 n)))))))
 ))
 (let ((?x218 (sc_s 2)))
 (let ((?x275 (sc_s 3)))
 (let (($x8219 (= ?x275 ?x218)))
 (let ((?x6643 (used_gas_s x_0 x_CALLDATALOAD_0 3)))
 (let (($x863 (= (stack_s x_0 x_CALLDATALOAD_0 3 (bvadd (_ bv63 6) ?x275)) (f_CALLDATALOAD x_0 x_CALLDATALOAD_0 (stack_s x_0 x_CALLDATALOAD_0 2 (bvadd (_ bv63 6) ?x218))))))
 (let (($x6759 (not (= ((_ extract 6 6) (bvadd (_ bv1 7) (concat (_ bv0 1) (sc_s 1)))) (_ bv0 1)))))
 (let (($x2932 (not (bvsle (_ bv0 6) (bvadd (_ bv63 6) (sc_s 1))))))
 (let (($x189 (exc_halt_s 1)))
 (let (($x247 (exc_halt_s 2)))
 (let (($x1213 (= $x247 (or $x189 $x2932 $x6759))))
 (let (($x445 (forall ((w (_ BitVec 256)) )(let ((?x9632 (storage_s x_0 x_CALLDATALOAD_0 1 w)))
 (let ((?x7497 (storage_s x_0 x_CALLDATALOAD_0 2 w)))
 (= ?x7497 ?x9632))))
 ))
 (let (($x9807 (forall ((n (_ BitVec 6)) )(let ((?x154 (sc_s 1)))
 (let ((?x174 (bvadd (_ bv63 6) ?x154)))
 (let (($x7569 (bvsle ?x174 n)))
 (or $x7569 (= (stack_s x_0 x_CALLDATALOAD_0 2 n) (stack_s x_0 x_CALLDATALOAD_0 1 n)))))))
 ))
 (let (($x6266 (= ?x218 (bvadd (_ bv1 6) (sc_s 1)))))
 (let ((?x8065 (used_gas_s x_0 x_CALLDATALOAD_0 2)))
 (let ((?x154 (sc_s 1)))
 (let ((?x174 (bvadd (_ bv63 6) ?x154)))
 (let ((?x3281 (stack_s x_0 x_CALLDATALOAD_0 1 ?x174)))
 (let (($x9839 (not (= ((_ extract 6 6) (bvadd (_ bv1 7) (concat (_ bv0 1) ?x72))) (_ bv0 1)))))
 (let (($x8991 (not (bvsle (_ bv0 6) (bvadd (_ bv63 6) ?x72)))))
 (let (($x3090 (forall ((w (_ BitVec 256)) )(let ((?x1051 (storage_s x_0 x_CALLDATALOAD_0 0 w)))
 (let ((?x9632 (storage_s x_0 x_CALLDATALOAD_0 1 w)))
 (= ?x9632 ?x1051))))
 ))
 (let (($x2899 (forall ((n (_ BitVec 6)) )(let ((?x72 (sc_s 0)))
 (let ((?x8800 (bvadd (_ bv63 6) ?x72)))
 (let (($x7545 (bvsle ?x8800 n)))
 (or $x7545 (= (stack_s x_0 x_CALLDATALOAD_0 1 n) (stack_s x_0 x_CALLDATALOAD_0 0 n)))))))
 ))
 (let (($x8655 (= ?x154 (bvadd (_ bv1 6) ?x72))))
 (let ((?x8800 (bvadd (_ bv63 6) ?x72)))
 (let ((?x7180 (stack_s x_0 x_CALLDATALOAD_0 0 ?x8800)))
 (let (($x9618 (forall ((w0 (_ BitVec 256)) )(let ((?x124 (ite (= (stack_s x_0 x_CALLDATALOAD_0 2 (bvadd (_ bv63 6) (sc_s 2))) w0) x_CALLDATALOAD_0 (_ bv0 256))))
 (let ((?x2109 (f_CALLDATALOAD x_0 x_CALLDATALOAD_0 w0)))
 (= ?x2109 ?x124))))
 ))
 (let (($x67 (forall ((w (_ BitVec 256)) )(let ((?x1051 (storage_s x_0 x_CALLDATALOAD_0 0 w)))
 (= ?x1051 (_ bv0 256))))
 ))
 (let (($x10051 (= ?x8863 0)))
 (let (($x7303 (not $x57)))
 (let (($x2780 (= (stack_s x_0 x_CALLDATALOAD_0 0 (_ bv0 6)) x_0)))
 (let (($x7315 (= ?x72 (_ bv1 6))))
 (and $x7315 $x2780 $x7303 $x10051 $x67 $x9618 (= ?x3281 ?x7180) (= (stack_s x_0 x_CALLDATALOAD_0 1 ?x8800) ?x7180) (= (used_gas_s x_0 x_CALLDATALOAD_0 1) (+ 3 ?x8863)) $x8655 $x2899 $x3090 (= $x189 (or $x57 $x8991 $x9839)) (= (stack_s x_0 x_CALLDATALOAD_0 2 (bvadd (_ bv63 6) ?x218)) ?x3281) (= (stack_s x_0 x_CALLDATALOAD_0 2 ?x174) ?x3281) (= ?x8065 (+ 3 (used_gas_s x_0 x_CALLDATALOAD_0 1))) $x6266 $x9807 $x445 $x1213 $x863 (= ?x6643 (+ 3 ?x8065)) $x8219 $x8685 $x10889 $x3936 (= (stack_s x_0 x_CALLDATALOAD_0 4 ?x275) (_ bv0 256)) (= ?x8055 (+ 3 ?x6643)) $x8397 $x11357 $x8718 (= $x7172 (or $x292 $x3783)) (= ?x4858 (bvnot (stack_s x_0 x_CALLDATALOAD_0 4 (bvadd (_ bv63 6) ?x4305)))) (= ?x11928 (+ 3 ?x8055)) $x9960 $x94 $x2020 $x2650 (= (stack_s x_0 x_CALLDATALOAD_0 6 (bvadd (_ bv63 6) ?x926)) (bvnot ?x8331)) $x11038 $x9602 $x2326 $x11437 $x6791 (= ?x9584 ?x10299) (= (stack_t x_0 x_CALLDATALOAD_0 1 ?x7761) ?x10299) (= (used_gas_t x_0 x_CALLDATALOAD_0 1) (+ 3 ?x3023)) $x3228 $x7192 $x4333 (= $x8377 (or $x56 $x6527 $x7311)) (= (stack_t x_0 x_CALLDATALOAD_0 2 (bvadd (_ bv63 6) ?x6158)) ?x8124) (= (stack_t x_0 x_CALLDATALOAD_0 2 ?x1350) ?x8124) (= (stack_t x_0 x_CALLDATALOAD_0 2 ?x6967) ?x9584) (= ?x3585 (+ 3 (used_gas_t x_0 x_CALLDATALOAD_0 1))) $x2783 $x10023 $x9922 (= $x3470 (or $x4195 $x8377 (not (bvsle (_ bv0 6) ?x1350)))) $x9573 $x1565 $x10269 $x5418 $x7866 $x6857 $x73 $x1684 $x58 $x3027 $x8161 (not (and $x9055 $x9092 $x4578 $x6742)))))))))))))))))))))))))))))))))))))))))))))))))))))))))))))))))))))))))))))))))))))))))))))))))))))))))
 )
(check-sat)
(get-proof)
